min: 5 x_AB + 4 x_AC + 7 x_AD + 6 x_AE + 5 x_BA + 2 x_BC + 2 x_BD + 4 x_BE + 4 x_CA + 2 x_CB + 10 x_CD + 8 x_CE + 7 x_DA + 2 x_DB + 10 x_DC + 6 x_DE + 6 x_EA + 4 x_EB + 8 x_EC + 6 x_ED;
c_A: x_AB + x_AC + x_AD + x_AE >= 1;
c_B: x_BA + x_BC + x_BD + x_BE >= 1;
c_C: x_CA + x_CB + x_CD + x_CE >= 1;
c_D: x_DA + x_DB + x_DC + x_DE >= 1;
c_E: x_EA + x_EB + x_EC + x_ED >= 1;
bin x_AB x_AC x_AD x_AE x_BA x_BC x_BD x_BE x_CA x_CB x_CD x_CE x_DA x_DB x_DC x_DE x_EA x_EB x_EC x_ED;
